NAME : n40w180.004.409.tour
COMMENT : Length = 409
COMMENT : Found by LKH [Keld Helsgaun] Tue Nov  7 19:39:17 2017
TYPE : TOUR
DIMENSION : 41
TOUR_SECTION
1
37
26
16
11
27
21
3
28
25
31
5
40
4
9
39
34
2
35
15
29
32
38
10
20
12
23
13
30
24
17
22
14
8
33
7
36
6
18
41
19
-1
EOF
